18 965
525 7 482 7 358 7 165 12
535 8 492 8 398 9 279 10 184 14 58 26 897 50
535 8 492 8 398 9 279 10 184 14 58 26 897 50
536 8 513 8 460 11
525 7 479 7 359 7 214 9 32 11 788 18
525 7 484 7 368 7 123 9 859 11 681 18
525 7 479 7 358 7 163 9 10 11 784 18
525 7 482 7 367 7 213 9 31 11 789 18
528 7 484 7 368 7 122 9 895 13
528 7 484 7 368 7 122 9 895 13
528 7 484 7 368 7 122 9 895 13
525 7 482 7 367 7 213 9 32 11 824 18
525 7 482 7 367 7 213 9 32 11 824 18
528 7 482 7 366 7 179 12
528 7 482 7 366 7 179 12
525 7 502 7 412 7 255 9 80 11 874 18
525 7 502 7 412 7 255 9 80 11 874 18
525 7 502 7 412 7 255 9 80 11 874 18
